Selected objective sense:  MINIMIZE
Selected objective  name:  OBJ
Selected RHS        name:  RHS1
Selected bound      name:  BND1
CPXPARAM_Preprocessing_Presolve                  0
CPXPARAM_LPMethod                                4
CPXPARAM_Threads                                 1
CPXPARAM_SolutionType                            2
CPXPARAM_TimeLimit                               3600
Tried aggregator 0 times.
Reduced presolve eliminated 47 rows and 47 columns.
Reduced LP has 4073 rows, 24512 columns, and 550446 nonzeros.
Presolve time = 0.08 sec. (65.40 ticks)
Parallel mode: none, using 1 thread for barrier
Number of nonzeros in lower triangle of A*A' = 92401
Using Approximate Minimum Degree ordering
Total time for automatic ordering = 0.01 sec. (21.00 ticks)
Summary statistics for Cholesky factor:
  Rows in Factor            = 4073
  Integer space required    = 95646
  Total non-zeros in factor = 96727
  Total FP ops to factor    = 2333359
 Itn      Primal Obj        Dual Obj  Prim Inf Upper Inf  Dual Inf Inf Ratio
   0   1.6306406e+08  -2.3739300e+06  1.53e+08  0.00e+00  7.49e+05  1.00e+00
   1   1.8133578e+07  -6.3151175e+05  1.54e+07  4.93e-12  4.47e+05  8.60e-03
   2   7.8644522e+05  -3.5250040e+05  9.48e+05  4.11e-12  6.97e+02  1.29e+00
   3   3.4413775e+04  -1.6957421e+05  1.05e+05  2.93e-12  2.63e+02  1.29e+00
   4   6.7460769e+03  -3.2768855e+04  7.86e+03  3.59e-12  5.63e+01  1.35e+00
   5   5.9699259e+03   3.8478471e+03  9.62e+01  1.02e-11  3.07e+00  1.84e+01
   6   5.9237762e+03   5.1850844e+03  6.61e+01  2.09e-12  9.91e-01  4.04e+01
   7   5.8444917e+03   5.6681391e+03  1.73e+01  8.93e-12  2.33e-01  1.61e+02
   8   5.8333811e+03   5.7525279e+03  1.33e+01  9.55e-12  8.02e-02  4.27e+02
   9   5.8178769e+03   5.7802433e+03  8.38e+00  1.02e-11  2.29e-02  1.13e+03
  10   5.8108035e+03   5.7852284e+03  5.90e+00  1.95e-12  1.46e-02  1.57e+03
  11   5.8105669e+03   5.7888249e+03  5.80e+00  7.76e-12  1.01e-02  2.09e+03
  12   5.8083094e+03   5.7891925e+03  4.91e+00  2.70e-12  9.54e-03  2.17e+03
  13   5.8064369e+03   5.7927918e+03  4.13e+00  3.02e-12  4.84e-03  3.53e+03
  14   5.8058824e+03   5.7950307e+03  3.90e+00  6.33e-12  1.85e-03  6.20e+03
  15   5.8055323e+03   5.7951528e+03  3.76e+00  6.10e-12  1.64e-03  6.53e+03
  16   5.8012266e+03   5.7955386e+03  1.89e+00  7.12e-12  1.28e-03  7.85e+03
  17   5.7994739e+03   5.7966721e+03  1.09e+00  7.26e-12  3.20e-04  1.78e+04
  18   5.7986504e+03   5.7967705e+03  6.95e-01  9.20e-12  2.62e-04  2.07e+04
  19   5.7981229e+03   5.7970308e+03  4.27e-01  6.98e-12  1.28e-04  3.57e+04
  20   5.7980739e+03   5.7971884e+03  4.02e-01  7.75e-12  5.61e-05  6.65e+04
  21   5.7979805e+03   5.7971970e+03  3.53e-01  9.79e-12  5.17e-05  7.03e+04
  22   5.7976334e+03   5.7972733e+03  1.70e-01  3.65e-12  1.76e-05  1.45e+05
  23   5.7975387e+03   5.7973061e+03  1.19e-01  4.64e-12  4.36e-06  2.88e+05
  24   5.7975320e+03   5.7973084e+03  1.14e-01  4.47e-12  4.23e-06  2.93e+05
  25   5.7975093e+03   5.7973176e+03  1.01e-01  1.08e-11  2.14e-06  3.86e+05
  26   5.7974734e+03   5.7973254e+03  8.12e-02  1.62e-11  5.34e-07  5.39e+05
  27   5.7974313e+03   5.7973342e+03  5.59e-02  1.48e-11  1.72e-07  1.13e+06
  28   5.7974205e+03   5.7973341e+03  4.96e-02  9.14e-12  4.30e-08  1.07e+06
  29   5.7973595e+03   5.7973353e+03  1.15e-02  2.38e-12  3.57e-08  1.25e+06
  30   5.7973580e+03   5.7973381e+03  1.05e-02  2.59e-12  2.06e-08  2.08e+06
  31   5.7973554e+03   5.7973386e+03  8.84e-03  3.73e-12  1.77e-08  2.35e+06
  32   5.7973505e+03   5.7973408e+03  5.71e-03  5.01e-12  4.45e-09  6.15e+06
  33   5.7973486e+03   5.7973415e+03  4.47e-03  5.56e-12  1.12e-09  1.23e+07
  34   5.7973435e+03   5.7973416e+03  1.12e-03  1.49e-11  8.05e-10  1.32e+07
  35   5.7973429e+03   5.7973422e+03  5.32e-04  1.03e-11  2.16e-10  6.22e+07
  36   5.7973429e+03   5.7973422e+03  5.13e-04  4.38e-12  2.15e-10  6.28e+07
  37   5.7973429e+03   5.7973423e+03  5.08e-04  1.00e-11  8.47e-11  1.50e+08
  38   5.7973427e+03   5.7973423e+03  3.06e-04  1.51e-11  1.02e-10  1.59e+08
  39   5.7973427e+03   5.7973423e+03  3.06e-04  1.62e-11  6.80e-11  8.79e+08
  40   5.7973424e+03   5.7973423e+03  8.22e-05  2.10e-11  8.16e-11  7.15e+08
Barrier time = 0.96 sec. (2049.47 ticks)

Total time on 1 threads = 0.96 sec. (2049.47 ticks)
Solve time: 0.958101153
Barrier iterations: 40
